\ENCODING=ISO-8859-1
\Problem name: Configuration2

Minimize
 obj:
Subject To
 c1:  10 y({"sfc_1"})(1)(1) <= 100
 c2:  10 y({"sfc_1"})(1)(2) <= 1
 c3:  10 y({"sfc_1"})(1)(3) <= 1
 c4:  10 y({"sfc_1"})(1)(4) <= 100
 c5:  10 y({"sfc_1"})(1)(5) <= 100
 c6:  10 y({"sfc_1"})(1)(6) <= 100
 c7:  y({"sfc_1"})(1)(1) + y({"sfc_1"})(1)(2) + y({"sfc_1"})(1)(3)
      + y({"sfc_1"})(1)(4) + y({"sfc_1"})(1)(5) + y({"sfc_1"})(1)(6) <= 1
 c8:  y({"sfc_1"})(1)(1) - x("VNF1")(1)  = 0
 c9:  y({"sfc_1"})(1)(2) - x("VNF1")(2)  = 0
 c10: y({"sfc_1"})(1)(3) - x("VNF1")(3)  = 0
 c11: y({"sfc_1"})(1)(4) - x("VNF1")(4)  = 0
 c12: y({"sfc_1"})(1)(5) - x("VNF1")(5)  = 0
 c13: y({"sfc_1"})(1)(6) - x("VNF1")(6)  = 0
 c14: y({"sfc_1"})(1)(1) - x("VNF2")(1)  = 0
 c15: y({"sfc_1"})(1)(2) - x("VNF2")(2)  = 0
 c16: y({"sfc_1"})(1)(3) - x("VNF2")(3)  = 0
 c17: y({"sfc_1"})(1)(4) - x("VNF2")(4)  = 0
 c18: y({"sfc_1"})(1)(5) - x("VNF2")(5)  = 0
 c19: y({"sfc_1"})(1)(6) - x("VNF2")(6)  = 0
 c20: y({"sfc_1"})(1)(1)  = 0
 c21: y({"sfc_1"})(1)(4)  = 0
 c22: z({"sfc_1"})({1,2}) + z({"sfc_1"})({1,6}) - z({"sfc_1"})({2,1})
      - z({"sfc_1"})({6,1})  = 1
 c23: z({"sfc_1"})({3,4}) + z({"sfc_1"})({5,4}) - z({"sfc_1"})({4,5})
      - z({"sfc_1"})({4,3})  = 1
 c24: - z({"sfc_1"})({1,2}) + z({"sfc_1"})({2,1}) + z({"sfc_1"})({2,3})
      + z({"sfc_1"})({2,6}) + z({"sfc_1"})({2,5}) - z({"sfc_1"})({3,2})
      - z({"sfc_1"})({6,2}) - z({"sfc_1"})({5,2})  = 0
 c25: z({"sfc_1"})({3,4}) - z({"sfc_1"})({4,3}) - z({"sfc_1"})({2,3})
      + z({"sfc_1"})({3,2}) + z({"sfc_1"})({3,5}) - z({"sfc_1"})({5,3})  = 0
 c26: z({"sfc_1"})({5,4}) - z({"sfc_1"})({4,5}) - z({"sfc_1"})({2,5})
      + z({"sfc_1"})({5,2}) - z({"sfc_1"})({3,5}) + z({"sfc_1"})({5,3})
      + z({"sfc_1"})({5,6}) - z({"sfc_1"})({6,5})  = 0
 c27: - z({"sfc_1"})({1,6}) + z({"sfc_1"})({6,1}) - z({"sfc_1"})({2,6})
      + z({"sfc_1"})({6,2}) - z({"sfc_1"})({5,6}) + z({"sfc_1"})({6,5})  = 0
 c28: z({"sfc_1"})({1,2}) + z({"sfc_1"})({2,1}) <= 1
 c29: z({"sfc_1"})({2,3}) + z({"sfc_1"})({3,2}) <= 1
 c30: z({"sfc_1"})({2,6}) + z({"sfc_1"})({6,2}) <= 1
 c31: z({"sfc_1"})({2,5}) + z({"sfc_1"})({5,2}) <= 1
 c32: z({"sfc_1"})({3,4}) + z({"sfc_1"})({4,3}) <= 1
 c33: z({"sfc_1"})({3,5}) + z({"sfc_1"})({5,3}) <= 1
 c34: z({"sfc_1"})({5,4}) + z({"sfc_1"})({4,5}) <= 1
 c35: z({"sfc_1"})({5,6}) + z({"sfc_1"})({6,5}) <= 1
 c36: z({"sfc_1"})({1,6}) + z({"sfc_1"})({6,1}) <= 1
 c37: z({"sfc_1"})({1,2}) + z({"sfc_1"})({2,1}) <= 1
 c38: z({"sfc_1"})({2,3}) + z({"sfc_1"})({3,2}) <= 1
 c39: z({"sfc_1"})({2,6}) + z({"sfc_1"})({6,2}) <= 1
 c40: z({"sfc_1"})({2,5}) + z({"sfc_1"})({5,2}) <= 1
 c41: z({"sfc_1"})({3,4}) + z({"sfc_1"})({4,3}) <= 1
 c42: z({"sfc_1"})({3,5}) + z({"sfc_1"})({5,3}) <= 1
 c43: z({"sfc_1"})({5,4}) + z({"sfc_1"})({4,5}) <= 1
 c44: z({"sfc_1"})({5,6}) + z({"sfc_1"})({6,5}) <= 1
 c45: z({"sfc_1"})({1,6}) + z({"sfc_1"})({6,1}) <= 1
 c46: - y({"sfc_1"})(1)(2) + z({"sfc_1"})({2,1}) + z({"sfc_1"})({2,3})
      + z({"sfc_1"})({2,6}) + z({"sfc_1"})({2,5})  = 0
 c47: - y({"sfc_1"})(1)(3) + z({"sfc_1"})({3,4}) + z({"sfc_1"})({3,2})
      + z({"sfc_1"})({3,5})  = 0
 c48: - y({"sfc_1"})(1)(5) + z({"sfc_1"})({5,4}) + z({"sfc_1"})({5,2})
      + z({"sfc_1"})({5,3}) + z({"sfc_1"})({5,6})  = 0
 c49: - y({"sfc_1"})(1)(6) + z({"sfc_1"})({6,1}) + z({"sfc_1"})({6,2})
      + z({"sfc_1"})({6,5})  = 0
 c50: - y({"sfc_1"})(1)(2) + z({"sfc_1"})({1,2}) + z({"sfc_1"})({3,2})
      + z({"sfc_1"})({6,2}) + z({"sfc_1"})({5,2})  = 0
 c51: - y({"sfc_1"})(1)(3) + z({"sfc_1"})({4,3}) + z({"sfc_1"})({2,3})
      + z({"sfc_1"})({5,3})  = 0
 c52: - y({"sfc_1"})(1)(5) + z({"sfc_1"})({4,5}) + z({"sfc_1"})({2,5})
      + z({"sfc_1"})({3,5}) + z({"sfc_1"})({6,5})  = 0
 c53: - y({"sfc_1"})(1)(6) + z({"sfc_1"})({1,6}) + z({"sfc_1"})({2,6})
      + z({"sfc_1"})({5,6})  = 0
Bounds
 0 <= y({"sfc_1"})(1)(1) <= 1
 0 <= y({"sfc_1"})(1)(2) <= 1
 0 <= y({"sfc_1"})(1)(3) <= 1
 0 <= y({"sfc_1"})(1)(4) <= 1
 0 <= y({"sfc_1"})(1)(5) <= 1
 0 <= y({"sfc_1"})(1)(6) <= 1
 0 <= x("VNF1")(1) <= 1
 0 <= x("VNF1")(2) <= 1
 0 <= x("VNF1")(3) <= 1
 0 <= x("VNF1")(4) <= 1
 0 <= x("VNF1")(5) <= 1
 0 <= x("VNF1")(6) <= 1
 0 <= x("VNF2")(1) <= 1
 0 <= x("VNF2")(2) <= 1
 0 <= x("VNF2")(3) <= 1
 0 <= x("VNF2")(4) <= 1
 0 <= x("VNF2")(5) <= 1
 0 <= x("VNF2")(6) <= 1
 0 <= z({"sfc_1"})({1,2}) <= 1
 0 <= z({"sfc_1"})({1,6}) <= 1
 0 <= z({"sfc_1"})({2,1}) <= 1
 0 <= z({"sfc_1"})({6,1}) <= 1
 0 <= z({"sfc_1"})({3,4}) <= 1
 0 <= z({"sfc_1"})({5,4}) <= 1
 0 <= z({"sfc_1"})({4,5}) <= 1
 0 <= z({"sfc_1"})({4,3}) <= 1
 0 <= z({"sfc_1"})({2,3}) <= 1
 0 <= z({"sfc_1"})({2,6}) <= 1
 0 <= z({"sfc_1"})({2,5}) <= 1
 0 <= z({"sfc_1"})({3,2}) <= 1
 0 <= z({"sfc_1"})({6,2}) <= 1
 0 <= z({"sfc_1"})({5,2}) <= 1
 0 <= z({"sfc_1"})({3,5}) <= 1
 0 <= z({"sfc_1"})({5,3}) <= 1
 0 <= z({"sfc_1"})({5,6}) <= 1
 0 <= z({"sfc_1"})({6,5}) <= 1
Binaries
 y({"sfc_1"})(1)(1)  y({"sfc_1"})(1)(2)  y({"sfc_1"})(1)(3) 
 y({"sfc_1"})(1)(4)  y({"sfc_1"})(1)(5)  y({"sfc_1"})(1)(6)  x("VNF1")(1) 
 x("VNF1")(2)  x("VNF1")(3)  x("VNF1")(4)  x("VNF1")(5)  x("VNF1")(6) 
 x("VNF2")(1)  x("VNF2")(2)  x("VNF2")(3)  x("VNF2")(4)  x("VNF2")(5) 
 x("VNF2")(6)  z({"sfc_1"})({1,2})  z({"sfc_1"})({1,6})  z({"sfc_1"})({2,1}) 
 z({"sfc_1"})({6,1})  z({"sfc_1"})({3,4})  z({"sfc_1"})({5,4}) 
 z({"sfc_1"})({4,5})  z({"sfc_1"})({4,3})  z({"sfc_1"})({2,3}) 
 z({"sfc_1"})({2,6})  z({"sfc_1"})({2,5})  z({"sfc_1"})({3,2}) 
 z({"sfc_1"})({6,2})  z({"sfc_1"})({5,2})  z({"sfc_1"})({3,5}) 
 z({"sfc_1"})({5,3})  z({"sfc_1"})({5,6})  z({"sfc_1"})({6,5}) 
End
